
Log started (V11.0.0) Thu May 15 02:53:10 2008

Tried aggregator 1 time.
Reduced MIP has 210 rows, 2001 columns, and 4010 nonzeros.
Presolve time =    0.01 sec.
Clique table members: 200.
MIP emphasis: balance optimality and feasibility.
MIP search method: dynamic search.
Parallel mode: none, using 1 thread.
Root relaxation solution time =    0.02 sec.

        Nodes                                         Cuts/
   Node  Left     Objective  IInf  Best Integer     Best Node    ItCnt     Gap

*     0+    0                        22259.0000     2033.5952      247   90.86%
*     0+    0                         2049.0000     2033.5952      247    0.75%
      0     0     2034.0000    18     2049.0000      Fract: 6      280    0.73%
*     0+    0                         2045.0000     2034.0000      280    0.54%
      0     0     2034.0000    20     2045.0000     Covers: 1      290    0.54%
      0     0     2034.0000    20     2045.0000     Covers: 1      300    0.54%
      0     2     2034.0000    20     2045.0000     2034.0000      300    0.54%
    100    89     2036.0000    13     2045.0000     2034.0000     2630    0.54%
    200   151     2036.0000    15     2045.0000     2034.0000    10667    0.54%
    300   216        cutoff           2045.0000     2034.0000    16051    0.54%
*   301+  215                         2042.0000     2034.0000    16137    0.39%
    400   296     2035.0000    17     2042.0000     2034.0000    18588    0.39%
*   481+  350                         2040.0000     2034.0000    21578    0.29%
*   483+  234                         2039.0000     2035.0000    22891    0.20%
    500   237     2035.0000    22     2039.0000     2035.0000    23071    0.20%
    600   209    infeasible           2039.0000     2035.0000    25401    0.20%
    700   199     2036.0000    16     2039.0000     2035.0000    28484    0.20%
*   783+  145                         2038.0000     2035.0000    32199    0.15%
    800   143     2036.0000    14     2038.0000     2035.0000    32736    0.15%
    900   199    infeasible           2038.0000     2035.0000    35404    0.15%
   1000   229     2037.0000    14     2038.0000     2035.0000    38219    0.15%
Elapsed time =   9.92 sec. (tree size =  0.18 MB, solutions = 7)
   1100   257    infeasible           2038.0000     2035.0000    41484    0.15%
*  1106+   97                         2037.0000     2035.0000    41765    0.10%
   1200   150     2036.0000    13     2037.0000     2035.0000    43594    0.10%
   1300   223     2036.0000    18     2037.0000     2035.0000    44853    0.10%
   1400   287     2036.0000    14     2037.0000     2035.0000    46335    0.10%
   1500   348     2036.0000    16     2037.0000     2035.0000    48583    0.10%
   1600   411     2036.0000    18     2037.0000     2035.0000    50824    0.10%
   1700   449     2036.0000    14     2037.0000     2035.0000    53876    0.10%
   1800   520    infeasible           2037.0000     2035.0000    55550    0.10%
   1900   569     2036.0000    40     2037.0000     2035.0000    57996    0.10%
   2000   646    infeasible           2037.0000     2035.0000    59687    0.10%
Elapsed time =  15.00 sec. (tree size =  0.56 MB, solutions = 8)
   2100   710     2036.0000    16     2037.0000     2035.0000    62404    0.10%
   2200   764    infeasible           2037.0000     2035.0000    64910    0.10%
   2300   798    infeasible           2037.0000     2035.0000    69328    0.10%
   2400   859    infeasible           2037.0000     2035.0000    71570    0.10%
   2500   952     2036.0000    34     2037.0000     2035.0000    72707    0.10%
   2600  1022    infeasible           2037.0000     2035.0000    74368    0.10%
   2700  1053     2036.0000    24     2037.0000     2035.0000    77318    0.10%
   2800  1132     2036.0000    14     2037.0000     2035.0000    78858    0.10%
   2900  1212     2036.0000    27     2037.0000     2035.0000    80327    0.10%
   3000  1270     2036.0000    18     2037.0000     2035.0000    82635    0.10%
Elapsed time =  19.39 sec. (tree size =  1.11 MB, solutions = 8)
   3100  1324     2036.0000    19     2037.0000     2035.0000    87385    0.10%
   3200  1404    infeasible           2037.0000     2035.0000    88899    0.10%
   3300  1503     2036.0000    26     2037.0000     2035.0000    90358    0.10%
   3400  1575     2036.0000    26     2037.0000     2035.0000    92183    0.10%
   3500  1615     2036.0000    16     2037.0000     2035.0000    94718    0.10%
   3600  1653    infeasible           2037.0000     2035.0000    98187    0.10%
   3700  1702     2036.0000    20     2037.0000     2035.0000   102672    0.10%
   3800  1790     2036.0000    20     2037.0000     2035.0000   103958    0.10%
   3900  1846     2036.0000    18     2037.0000     2035.0000   107237    0.10%
   4000  1878     2036.0000    18     2037.0000     2035.0000   115793    0.10%
Elapsed time =  25.22 sec. (tree size =  1.63 MB, solutions = 8)
   4100  1904     2036.0000    19     2037.0000     2035.0000   125295    0.10%
   4200  1955     2036.0000    20     2037.0000     2035.0000   129084    0.10%
   4300  2039     2036.0000    12     2037.0000     2035.0000   130578    0.10%
   4400  2112     2036.0000    18     2037.0000     2035.0000   132326    0.10%
   4500  2192     2036.0000    14     2037.0000     2035.0000   134126    0.10%
   4600  2246    infeasible           2037.0000     2035.0000   139071    0.10%
   4700  2301     2036.0000    18     2037.0000     2035.0000   143715    0.10%
   4800  2388    infeasible           2037.0000     2035.0000   144956    0.10%
   4900  2454     2036.0000    13     2037.0000     2035.0000   146593    0.10%
   5000  2472    infeasible           2037.0000     2035.0000   150408    0.10%
Elapsed time =  31.84 sec. (tree size =  2.16 MB, solutions = 8)
   5100  2552    infeasible           2037.0000     2035.0000   151918    0.10%
   5200  2580    infeasible           2037.0000     2035.0000   154519    0.10%
   5300  2598    infeasible           2037.0000     2035.0000   158945    0.10%
   5400  2660     2036.0000    18     2037.0000     2035.0000   162421    0.10%
   5500  2741     2036.0000    16     2037.0000     2035.0000   164112    0.10%
   5600  2807     2036.0000    20     2037.0000     2035.0000   166363    0.10%
   5700  2835     2036.0000    20     2037.0000     2035.0000   170444    0.10%
*  5783+  162                         2036.0000     2035.0000   172022    0.05%
   5800   156    infeasible           2036.0000     2035.0000   173636    0.05%
   5900   192    infeasible           2036.0000     2035.0000   185031    0.05%
   6000   188     2035.0000    46     2036.0000     2035.0000   203811    0.05%
Elapsed time =  42.39 sec. (tree size =  0.19 MB, solutions = 9)
   6100   202    infeasible           2036.0000     2035.0000   220173    0.05%
   6200   160    infeasible           2036.0000     2035.0000   249981    0.05%
   6300   127    infeasible           2036.0000     2035.0000   279854    0.05%
   6400   111     2035.0000    61     2036.0000     2035.0000   309420    0.05%
   6500   105     2035.0000    63     2036.0000     2035.0000   338577    0.05%
   6600   105    infeasible           2036.0000     2035.0000   368452    0.05%
   6700    79     2035.0000    85     2036.0000     2035.0000   406615    0.05%
   6800    51    infeasible           2036.0000     2035.0000   446358    0.05%
   6900    73    infeasible           2036.0000     2035.0000   472340    0.05%
   7000    83    infeasible           2036.0000     2035.0000   506198    0.05%
Elapsed time = 123.30 sec. (tree size =  0.12 MB, solutions = 9)
   7100    89     2035.0000    82     2036.0000     2035.0000   541636    0.05%
   7200    69    infeasible           2036.0000     2035.0000   589357    0.05%
   7300    18    infeasible           2036.0000     2035.0000   652907    0.05%

Cover cuts applied:  561
Mixed integer rounding cuts applied:  17
Gomory fractional cuts applied:  14

Solution pool: 9 solutions saved.

MIP - Integer optimal solution:  Objective = 2.0360000000e+003
Solution time =  184.20 sec.  Iterations = 683764  Nodes = 7361


Incumbent solution
Variable Name           Solution Value
Cmax                       2036.000000
X_1_10                        1.000000
X_2_10                        1.000000
X_3_10                        1.000000
X_4_1                         1.000000
X_5_3                         1.000000
X_6_5                         1.000000
X_7_3                         1.000000
X_8_6                         1.000000
X_9_9                         1.000000
X_10_10                       1.000000
X_11_3                        1.000000
X_12_7                        1.000000
X_13_1                        1.000000
X_14_7                        1.000000
X_15_3                        1.000000
X_16_7                        1.000000
X_17_4                        1.000000
X_18_6                        1.000000
X_19_7                        1.000000
X_20_7                        1.000000
X_21_10                       1.000000
X_22_9                        1.000000
X_23_5                        1.000000
X_24_4                        1.000000
X_25_9                        1.000000
X_26_8                        1.000000
X_27_9                        1.000000
X_28_1                        1.000000
X_29_6                        1.000000
X_30_1                        1.000000
X_31_2                        1.000000
X_32_4                        1.000000
X_33_9                        1.000000
X_34_2                        1.000000
X_35_9                        1.000000
X_36_2                        1.000000
X_37_9                        1.000000
X_38_8                        1.000000
X_39_7                        1.000000
X_40_7                        1.000000
X_41_8                        1.000000
X_42_1                        1.000000
X_43_1                        1.000000
X_44_8                        1.000000
X_45_4                        1.000000
X_46_8                        1.000000
X_47_6                        1.000000
X_48_5                        1.000000
X_49_2                        1.000000
X_50_7                        1.000000
X_51_6                        1.000000
X_52_6                        1.000000
X_53_6                        1.000000
X_54_10                       1.000000
X_55_4                        1.000000
X_56_8                        1.000000
X_57_7                        1.000000
X_58_5                        1.000000
X_59_8                        1.000000
X_60_1                        1.000000
X_61_9                        1.000000
X_62_4                        1.000000
X_63_10                       1.000000
X_64_5                        1.000000
X_65_2                        1.000000
X_66_1                        1.000000
X_67_7                        1.000000
X_68_4                        1.000000
X_69_10                       1.000000
X_70_1                        1.000000
X_71_1                        1.000000
X_72_2                        1.000000
X_73_9                        1.000000
X_74_2                        1.000000
X_75_9                        1.000000
X_76_4                        1.000000
X_77_3                        1.000000
X_78_2                        1.000000
X_79_6                        1.000000
X_80_4                        1.000000
X_81_6                        1.000000
X_82_8                        1.000000
X_83_8                        1.000000
X_84_10                       1.000000
X_85_4                        1.000000
X_86_6                        1.000000
X_87_4                        1.000000
X_88_3                        1.000000
X_89_1                        1.000000
X_90_10                       1.000000
X_91_1                        1.000000
X_92_7                        1.000000
X_93_7                        1.000000
X_94_6                        1.000000
X_95_3                        1.000000
X_96_5                        1.000000
X_97_3                        1.000000
X_98_3                        1.000000
X_99_2                        1.000000
X_100_10                      1.000000
X_101_8                       1.000000
X_102_4                       1.000000
X_103_9                       1.000000
X_104_8                       1.000000
X_105_9                       1.000000
X_106_4                       1.000000
X_107_2                       1.000000
X_108_5                       1.000000
X_109_9                       1.000000
X_110_2                       1.000000
X_111_6                       1.000000
X_112_8                       1.000000
X_113_10                      1.000000
X_114_1                       1.000000
X_115_5                       1.000000
X_116_9                       1.000000
X_117_4                       1.000000
X_118_8                       1.000000
X_119_8                       1.000000
X_120_7                       1.000000
X_121_5                       1.000000
X_122_2                       1.000000
X_123_10                      1.000000
X_124_10                      1.000000
X_125_5                       1.000000
X_126_2                       1.000000
X_127_5                       1.000000
X_128_9                       1.000000
X_129_7                       1.000000
X_130_1                       1.000000
X_131_10                      1.000000
X_132_5                       1.000000
X_133_5                       1.000000
X_134_4                       1.000000
X_135_10                      1.000000
X_136_5                       1.000000
X_137_7                       1.000000
X_138_8                       1.000000
X_139_6                       1.000000
X_140_5                       1.000000
X_141_10                      1.000000
X_142_7                       1.000000
X_143_6                       1.000000
X_144_3                       1.000000
X_145_6                       1.000000
X_146_8                       1.000000
X_147_7                       1.000000
X_148_3                       1.000000
X_149_8                       1.000000
X_150_7                       1.000000
X_151_2                       1.000000
X_152_6                       1.000000
X_153_1                       1.000000
X_154_1                       1.000000
X_155_3                       1.000000
X_156_8                       1.000000
X_157_9                       1.000000
X_158_10                      1.000000
X_159_3                       1.000000
X_160_2                       1.000000
X_161_3                       1.000000
X_162_3                       1.000000
X_163_3                       1.000000
X_164_2                       1.000000
X_165_4                       1.000000
X_166_3                       1.000000
X_167_9                       1.000000
X_168_1                       1.000000
X_169_6                       1.000000
X_170_3                       1.000000
X_171_2                       1.000000
X_172_9                       1.000000
X_173_4                       1.000000
X_174_2                       1.000000
X_175_3                       1.000000
X_176_4                       1.000000
X_177_5                       1.000000
X_178_2                       1.000000
X_179_6                       1.000000
X_180_9                       1.000000
X_181_5                       1.000000
X_182_2                       1.000000
X_183_7                       1.000000
X_184_7                       1.000000
X_185_8                       1.000000
X_186_5                       1.000000
X_187_6                       1.000000
X_188_1                       1.000000
X_189_3                       1.000000
X_190_4                       1.000000
X_191_10                      1.000000
X_192_5                       1.000000
X_193_10                      1.000000
X_194_9                       1.000000
X_195_4                       1.000000
X_196_5                       1.000000
X_197_1                       1.000000
X_198_8                       1.000000
X_199_1                       1.000000
X_200_6                       1.000000
All other variables in the range 1-2001 are 0.
